jobs  (incl. supersource/sink ):	52
RESOURCES
- renewable                 : 2 R
- nonrenewable              : 2 N
- doubly constrained        : 0 D
************************************************************************
PRECEDENCE RELATIONS:
jobnr.    #modes  #successors   successors
1	1	17		2 3 4 5 6 7 8 9 10 11 12 14 15 16 19 24 25 
2	3	11		48 46 45 36 34 33 32 31 28 26 17 
3	3	12		51 49 48 47 46 36 35 31 28 26 23 22 
4	3	9		48 47 36 31 28 26 23 21 18 
5	3	6		48 46 35 33 29 13 
6	3	8		49 48 47 37 34 29 26 21 
7	3	8		50 49 47 46 33 29 26 22 
8	3	8		46 37 36 33 32 31 28 27 
9	3	9		51 48 47 45 44 43 32 30 29 
10	3	5		50 44 35 31 20 
11	3	7		50 48 46 44 43 30 29 
12	3	8		51 45 43 42 38 34 32 30 
13	3	6		50 47 45 43 28 26 
14	3	5		51 48 47 34 21 
15	3	6		50 49 47 46 32 28 
16	3	5		43 36 31 30 26 
17	3	9		51 50 49 47 44 42 41 40 39 
18	3	8		50 49 46 43 42 41 40 39 
19	3	5		48 43 39 32 31 
20	3	5		49 45 43 41 30 
21	3	3		46 45 30 
22	3	3		45 42 30 
23	3	3		43 39 32 
24	3	4		48 45 44 43 
25	3	2		42 30 
26	3	3		44 42 39 
27	3	3		44 41 40 
28	3	1		30 
29	3	1		31 
30	3	2		40 39 
31	3	2		42 41 
32	3	2		41 40 
33	3	2		43 40 
34	3	2		41 39 
35	3	2		41 40 
36	3	1		39 
37	3	1		41 
38	3	1		39 
39	3	1		52 
40	3	1		52 
41	3	1		52 
42	3	1		52 
43	3	1		52 
44	3	1		52 
45	3	1		52 
46	3	1		52 
47	3	1		52 
48	3	1		52 
49	3	1		52 
50	3	1		52 
51	3	1		52 
52	1	0		
************************************************************************
REQUESTS/DURATIONS
jobnr.	mode	dur	R1	R2	N1	N2	
------------------------------------------------------------------------
1	1	0	0	0	0	0	
2	1	4	0	6	0	7	
	2	4	8	0	0	6	
	3	9	8	0	0	5	
3	1	1	8	0	9	0	
	2	4	0	5	0	6	
	3	5	7	0	4	0	
4	1	1	3	0	7	0	
	2	1	0	1	0	5	
	3	8	2	0	0	1	
5	1	2	0	7	2	0	
	2	3	7	0	0	4	
	3	10	5	0	1	0	
6	1	1	0	5	0	5	
	2	4	6	0	3	0	
	3	5	5	0	1	0	
7	1	2	0	3	0	4	
	2	4	5	0	0	4	
	3	9	4	0	1	0	
8	1	3	0	3	8	0	
	2	3	7	0	6	0	
	3	6	5	0	0	4	
9	1	5	8	0	0	7	
	2	7	7	0	6	0	
	3	10	0	2	5	0	
10	1	3	0	4	5	0	
	2	6	4	0	0	3	
	3	10	0	4	2	0	
11	1	7	0	5	4	0	
	2	8	0	4	4	0	
	3	8	2	0	0	6	
12	1	6	3	0	0	5	
	2	7	0	1	0	5	
	3	10	0	1	0	3	
13	1	1	7	0	0	9	
	2	5	3	0	6	0	
	3	8	3	0	3	0	
14	1	4	0	7	0	8	
	2	6	0	6	0	7	
	3	7	0	4	0	5	
15	1	2	0	4	0	4	
	2	9	0	3	6	0	
	3	9	10	0	0	3	
16	1	4	0	4	0	6	
	2	6	0	2	7	0	
	3	7	5	0	5	0	
17	1	6	10	0	5	0	
	2	6	9	0	0	3	
	3	9	9	0	3	0	
18	1	6	9	0	7	0	
	2	6	0	6	4	0	
	3	7	0	3	1	0	
19	1	3	0	7	0	9	
	2	4	7	0	0	8	
	3	4	0	4	0	7	
20	1	1	8	0	0	5	
	2	6	0	5	2	0	
	3	10	0	5	0	3	
21	1	2	0	8	8	0	
	2	3	6	0	0	4	
	3	9	6	0	0	2	
22	1	3	0	8	0	3	
	2	3	0	6	5	0	
	3	6	10	0	0	3	
23	1	1	0	4	7	0	
	2	1	4	0	0	2	
	3	8	0	2	2	0	
24	1	1	9	0	0	6	
	2	6	0	1	6	0	
	3	8	4	0	0	1	
25	1	1	0	8	0	6	
	2	9	0	8	0	5	
	3	9	0	8	3	0	
26	1	3	0	3	0	6	
	2	6	9	0	0	5	
	3	10	0	1	0	4	
27	1	4	9	0	0	3	
	2	5	6	0	6	0	
	3	6	6	0	5	0	
28	1	5	0	7	5	0	
	2	8	7	0	0	6	
	3	9	0	5	2	0	
29	1	4	0	7	9	0	
	2	7	8	0	8	0	
	3	8	7	0	7	0	
30	1	3	8	0	6	0	
	2	3	0	4	5	0	
	3	6	5	0	0	2	
31	1	7	3	0	0	4	
	2	9	2	0	2	0	
	3	9	2	0	0	2	
32	1	1	0	7	10	0	
	2	2	5	0	7	0	
	3	7	0	6	0	4	
33	1	3	9	0	8	0	
	2	10	9	0	4	0	
	3	10	9	0	0	5	
34	1	5	0	7	8	0	
	2	6	4	0	4	0	
	3	6	2	0	0	4	
35	1	4	0	8	0	3	
	2	5	0	5	0	3	
	3	6	0	2	6	0	
36	1	6	3	0	0	8	
	2	9	1	0	5	0	
	3	10	0	4	0	6	
37	1	1	6	0	0	6	
	2	1	4	0	7	0	
	3	7	0	4	0	3	
38	1	2	6	0	0	9	
	2	5	6	0	3	0	
	3	6	6	0	1	0	
39	1	2	0	6	3	0	
	2	3	0	5	3	0	
	3	9	0	4	2	0	
40	1	2	8	0	0	4	
	2	6	0	8	0	3	
	3	8	6	0	4	0	
41	1	1	0	6	7	0	
	2	2	0	5	7	0	
	3	8	0	5	6	0	
42	1	5	9	0	0	5	
	2	9	6	0	0	3	
	3	10	2	0	3	0	
43	1	1	0	3	6	0	
	2	5	0	2	5	0	
	3	10	2	0	5	0	
44	1	1	7	0	5	0	
	2	3	7	0	0	8	
	3	8	7	0	0	7	
45	1	1	0	2	7	0	
	2	6	5	0	6	0	
	3	8	3	0	0	5	
46	1	2	0	8	0	9	
	2	6	2	0	8	0	
	3	9	2	0	7	0	
47	1	6	0	3	0	9	
	2	6	9	0	0	8	
	3	9	8	0	0	8	
48	1	2	7	0	0	5	
	2	3	6	0	0	3	
	3	5	6	0	0	1	
49	1	5	0	6	0	10	
	2	9	0	3	0	9	
	3	9	7	0	8	0	
50	1	7	9	0	0	4	
	2	8	5	0	0	4	
	3	10	0	5	5	0	
51	1	2	5	0	9	0	
	2	2	0	4	0	7	
	3	4	4	0	0	5	
52	1	0	0	0	0	0	
************************************************************************

 RESOURCE AVAILABILITIES 
	R 1	R 2	N 1	N 2
	30	24	134	140

************************************************************************
